// Dezyne --- Dezyne command line tools
//
// Copyright © 2014 Rob Wieringa <Rob.Wieringa@verum.com>
//
// This file is part of Dezyne.
//
// Dezyne is free software: you can redistribute it and/or modify it
// under the terms of the GNU Affero General Public License as
// published by the Free Software Foundation, either version 3 of the
// License, or (at your option) any later version.
//
// Dezyne is distributed in the hope that it will be useful, but
// WITHOUT ANY WARRANTY; without even the implied warranty of
// MERCHANTABILITY or FITNESS FOR A PARTICULAR PURPOSE.  See the GNU
// Affero General Public License for more details.
//
// You should have received a copy of the GNU Affero General Public
// License along with Dezyne.  If not, see <http://www.gnu.org/licenses/>.
//
// Commentary:
//
// Code:

interface itop
{
  in void e;
  out void f;
  behaviour
  {
    on e: f;
  }
}

interface imiddle
{
  in void e;
  out void f;
  behaviour
  {
    on e: f;
  }
}

interface ibottom
{
  in void e;
  out void f;
  behaviour
  {
    on e: f;
  }
}

interface ilogger
{
  in void log;
  behaviour
  {
    on log:{}
  }
}

component logger
{
  provides ilogger log;
  behaviour
  {
    on log.log: {}
  }
}

component middle
{
  provides itop t;
  requires ibottom b;
  requires injected ilogger l;

  behaviour
  {
    on t.e: {l.log; b.e;}
    on b.f: {l.log; t.f;}
  }
}

component bottom
{
  provides ibottom b;
  behaviour
  {
    on b.e: b.f;
  }
}

component Injected
{
  provides itop t;
  system
  {
    logger l;
    middle m;
    bottom b;

    m.t <=> t;
    m.b <=> b.b;
    l.log <=> *;
  }
}
